p cnf 70 52
1 0
-1 -2 3 0
4 0
-4 -5 -6 -7 8 0
-4 -5 -6 -7 9 0
10 0
-10 -11 12 0
13 0
-13 -3 14 0
15 0
-15 -16 17 0
18 0
-18 -14 -19 -20 21 0
-18 -14 -19 -20 22 0
23 0
-23 -17 -24 -25 26 0
-23 -17 -24 -25 27 0
28 0
-28 -29 30 0
31 0
-31 -32 33 0
34 0
-34 -30 -35 -36 37 0
-34 -30 -35 -36 38 0
39 0
-39 -33 -40 -41 42 0
-39 -33 -40 -41 43 0
44 0
-44 -45 46 0
47 0
-47 -46 -48 -49 50 0
-47 -46 -48 -49 51 0
52 0
-52 -53 -50 -54 55 0
-52 -53 -50 -54 56 0
57 0
-57 -58 59 0
60 0
-60 -59 -61 -62 63 0
-60 -59 -61 -62 64 0
7 0
6 0
65 0
66 0
11 0
2 0
67 0
68 0
5 0
63 0
69 0
70 0
